
Cover cuts applied:  39
Implied bound cuts applied:  2
Flow cuts applied:  32
Mixed integer rounding cuts applied:  12
Zero-half cuts applied:  14
Gomory fractional cuts applied:  4

Root node processing (before b&c):
  Real time             =    0.06 sec. (31.76 ticks)
Parallel b&c, 4 threads:
  Real time             =    0.25 sec. (21.04 ticks)
  Sync time (average)   =    0.13 sec.
  Wait time (average)   =    0.00 sec.
                          ------------
Total (root+branch&cut) =    0.31 sec. (52.80 ticks)
Version identifier: 12.10.0.0 | 2019-11-26 | 843d4de
CPXPARAM_MIP_Interval                            10
CPXPARAM_MIP_Tolerances_AbsMIPGap                0.98999999999999999
Tried aggregator 2 times.
MIP Presolve eliminated 2132 rows and 1393 columns.
MIP Presolve modified 1 coefficients.
Aggregator did 46 substitutions.
Reduced MIP has 145 rows, 157 columns, and 514 nonzeros.
Reduced MIP has 69 binaries, 88 generals, 0 SOSs, and 0 indicators.
Presolve time = 0.00 sec. (2.39 ticks)
Probing fixed 0 vars, tightened 7 bounds.
Probing changed sense of 4 constraints.
Probing time = 0.00 sec. (0.03 ticks)
Tried aggregator 1 time.
Detecting symmetries...
MIP Presolve eliminated 7 rows and 6 columns.
MIP Presolve modified 9 coefficients.
Reduced MIP has 138 rows, 151 columns, and 489 nonzeros.
Reduced MIP has 65 binaries, 86 generals, 0 SOSs, and 0 indicators.
Presolve time = 0.00 sec. (0.37 ticks)
Probing time = 0.00 sec. (0.03 ticks)
MIP emphasis: balance optimality and feasibility.
MIP search method: dynamic search.
Parallel mode: deterministic, using up to 4 threads.
Root relaxation solution time = 0.00 sec. (0.73 ticks)

        Nodes                                         Cuts/
   Node  Left     Objective  IInf  Best Integer    Best Bound    ItCnt     Gap

      0     0       19.3333    18                     19.3333      103         
      0     0       18.8000    18                    Cuts: 46      183         
      0     0       18.7860    18                    Cuts: 50      220         
      0     0       18.7328    18                    Cuts: 47      239         
      0     0       18.7184    18                    Cuts: 30      265         
      0     0       18.6393    18                    Cuts: 43      307         
Detecting symmetries...
      0     0       18.6154    18                    Cuts: 41      333         
      0     0       18.5920    18                    Cuts: 45      369         
      0     0       18.5909    18                    Cuts: 73      400         
      0     0       18.5152    18                    Cuts: 20      429         
      0     0       18.5038    18                    Cuts: 32      449         
      0     0       18.4667    18                    Cuts: 50      474         
      0     0       18.3750    18                    Cuts: 22      520         
      0     0       18.3462    18                    Cuts: 43      573         
      0     0       18.3216    18                    Cuts: 46      611         
      0     0       18.2857    18                    Cuts: 44      632         
      0     0       18.2843    18                    Cuts: 28      662         
*     0+    0                           15.0000       18.2843            21.90%
*     0+    0                           16.0000       18.2843            14.28%
Detecting symmetries...
      0     2       18.2843    68       16.0000       18.2843      662   14.28%
Elapsed time = 0.15 sec. (47.61 ticks, tree = 0.02 MB, solutions = 2)
     10     9       18.0833    49       16.0000       18.2000      870   13.75%
     20    12       17.9660    50       16.0000       18.2000      931   13.75%
     30    11       17.9376    58       16.0000       18.2000      936   13.75%
     40    34    infeasible             16.0000       18.2000     1472   13.75%
     50    29       17.2500    15       16.0000       18.2000     1334   13.75%
     60    33       18.1425    46       16.0000       18.2000     1511   13.75%
     70    42       17.2085    52       16.0000       18.2000     1707   13.75%
     80    47        cutoff             16.0000       18.2000     1915   13.75%
     90    47       17.3333    16       16.0000       18.2000     1999   13.75%
    100    51       17.0000    23       16.0000       18.1667     2094   13.54%
Elapsed time = 0.18 sec. (54.78 ticks, tree = 0.02 MB, solutions = 2)
    110    49    infeasible             16.0000       18.1667     2121   13.54%
    120    68        cutoff             16.0000       18.0417     2686   12.76%
    130    70       17.3125    43       16.0000       18.0417     2714   12.76%
    140    67       17.6667    30       16.0000       18.0417     2591   12.76%
    150    70        cutoff             16.0000       18.0417     3042   12.76%
    160    62       17.6250    27       16.0000       18.0417     2475   12.76%
    170    69       17.6875    40       16.0000       18.0417     2771   12.76%
    180    74       17.0000    28       16.0000       18.0000     2808   12.50%
    190    74       17.5000    37       16.0000       18.0000     2860   12.50%
    200    79        cutoff             16.0000       18.0000     3363   12.50%
Elapsed time = 0.21 sec. (60.62 ticks, tree = 0.03 MB, solutions = 2)
    210   101       17.4012    25       16.0000       17.9969     4142   12.48%
    220    83       17.3728    31       16.0000       17.9969     3457   12.48%
    230   103       17.8084    41       16.0000       17.9969     4221   12.48%
    240    85       17.0278    38       16.0000       17.9969     3583   12.48%
    250   113       17.8618    50       16.0000       17.9969     4665   12.48%
    260   105       17.9010    65       16.0000       17.9969     4329   12.48%
    270   114       17.6605    49       16.0000       17.9969     4739   12.48%
    280   116        cutoff             16.0000       17.9691     5012   12.31%
    290   108       17.1649    56       16.0000       17.9691     4493   12.31%
    300   134        cutoff             16.0000       17.9660     5831   12.29%
Elapsed time = 0.22 sec. (67.84 ticks, tree = 0.03 MB, solutions = 2)
    310   117       17.2650    59       16.0000       17.9660     5163   12.29%
    320   136        cutoff             16.0000       17.9583     5979   12.24%
    330   147        cutoff             16.0000       17.9583     6616   12.24%
    340   137       17.5000    25       16.0000       17.9583     6138   12.24%
    350   127        cutoff             16.0000       17.9583     5802   12.24%
    360   121       17.2500    32       16.0000       17.9583     5487   12.24%
    370   148        cutoff             16.0000       17.9583     6847   12.24%
    380   129        cutoff             16.0000       17.9412     6040   12.13%
    390   130       17.1193    32       16.0000       17.9412     6117   12.13%
    400   140        cutoff             16.0000       17.9412     6514   12.13%
Elapsed time = 0.24 sec. (75.50 ticks, tree = 0.03 MB, solutions = 2)
    410   153       17.0000    30       16.0000       17.9105     7294   11.94%
    420   147    infeasible             16.0000       17.9105     7133   11.94%
    430   154       17.0000    29       16.0000       17.8980     7486   11.86%
    440   159       17.0000    18       16.0000       17.8980     9411   11.86%
    450   154        cutoff             16.0000       17.8980     7624   11.86%
    460   156        cutoff             16.0000       17.8980     8858   11.86%
    470   160       17.3333    31       16.0000       17.8980     9544   11.86%
    480   155       17.5839    39       16.0000       17.8980     8204   11.86%
    490   164    infeasible             16.0000       17.8980     9611   11.86%
    500   167       17.2131    36       16.0000       17.8980     9692   11.86%
Elapsed time = 0.27 sec. (82.85 ticks, tree = 0.04 MB, solutions = 2)
    510   159       17.5625    30       16.0000       17.8807    10201   11.75%
    520   154    infeasible             16.0000       17.8807     9074   11.75%
    530   157        cutoff             16.0000       17.8807     8384   11.75%
    540   159       17.2265    35       16.0000       17.8807     8472   11.75%
    550   157        cutoff             16.0000       17.8807    10382   11.75%
    560   156       17.1428    46       16.0000       17.8807    10457   11.75%
    570   166       17.3287    47       16.0000       17.8343    10036   11.46%
    580   158        cutoff             16.0000       17.8333    10546   11.46%
    590   167       17.3083    38       16.0000       17.8333    10093   11.46%
    600   167       17.0922    30       16.0000       17.8333    10136   11.46%
Elapsed time = 0.29 sec. (90.67 ticks, tree = 0.05 MB, solutions = 2)
    610   160       17.0000    46       16.0000       17.8333    11771   11.46%
    620   165        cutoff             16.0000       17.8333    11155   11.46%
    630   164       17.3857    65       16.0000       17.8025    12230   11.27%
    640   165       17.2407    22       16.0000       17.8025    11253   11.27%
    650   167       17.0000     9       16.0000       17.8025    11290   11.27%
    660   163       17.3390    47       16.0000       17.8025    12031   11.27%
    670   165       17.0093    33       16.0000       17.8025    12091   11.27%
    680   165       17.3951    49       16.0000       17.8025    12496   11.27%
    690   167       17.1142    43       16.0000       17.8025    12579   11.27%
    700   168       17.2281    43       16.0000       17.8025    11477   11.27%
Elapsed time = 0.32 sec. (98.74 ticks, tree = 0.06 MB, solutions = 2)
    710   173       17.0000    34       16.0000       17.8025    13556   11.27%
    720   171        cutoff             16.0000       17.6667    13797   10.42%
    730   171       17.0000    13       16.0000       17.6667    14550   10.42%
    740   172       17.1809    41       16.0000       17.6667    13883   10.42%
    750   174    infeasible             16.0000       17.6667    13734   10.42%
    760   171       17.3169    47       16.0000       17.6667    13967   10.42%
    770   174        cutoff             16.0000       17.6667    14050   10.42%
    780   168       17.1838    37       16.0000       17.6667    15772   10.42%
    790   174        cutoff             16.0000       17.6667    14104   10.42%
    800   170        cutoff             16.0000       17.6667    15569   10.42%
Elapsed time = 0.36 sec. (105.89 ticks, tree = 0.06 MB, solutions = 2)
    810   169        cutoff             16.0000       17.6019    15638   10.01%
    820   181       17.0000    12       16.0000       17.6019    14302   10.01%
    830   179        cutoff             16.0000       17.6019    14382   10.01%
    840   165        cutoff             16.0000       17.6019    17308   10.01%
    850   171        cutoff             16.0000       17.5579    18189    9.74%
    860   172       17.0000    66       16.0000       17.5579    18234    9.74%
    870   166       17.0000    10       16.0000       17.5000    17527    9.37%
    880   164        cutoff             16.0000       17.5000    17562    9.37%
    890   161        cutoff             16.0000       17.5000    17609    9.37%
    900   167        cutoff             16.0000       17.5000    18448    9.37%
Elapsed time = 0.38 sec. (114.19 ticks, tree = 0.05 MB, solutions = 2)
    910   156       17.0000    46       16.0000       17.4599    19314    9.12%
    920   163        cutoff             16.0000       17.4599    18622    9.12%
    930   142        cutoff             16.0000       17.3929    19920    8.71%
    940   133        cutoff             16.0000       17.3929    20117    8.71%
    950   141        cutoff             16.0000       17.3929    20026    8.71%
    960   108        cutoff             16.0000       17.3929    20882    8.71%
    970    95        cutoff             16.0000       17.2500    21197    7.81%
    980    87        cutoff             16.0000       17.2500    21349    7.81%
    990    76        cutoff             16.0000       17.2160    21719    7.60%
   1000    67    infeasible             16.0000       17.2160    21822    7.60%
Elapsed time = 0.42 sec. (122.10 ticks, tree = 0.03 MB, solutions = 2)
   1010    83    infeasible             16.0000       17.2160    21478    7.60%
   1020    80    infeasible             16.0000       17.2160    21498    7.60%
   1030    38        cutoff             16.0000       17.1955    22306    7.47%
   1040    72    infeasible             16.0000       17.1955    21914    7.47%
   1050    21        cutoff             16.0000       17.1250    22683    7.03%
the number of Nodes = 1051
